webassembly/ejemplos_dzn/3/folder3_json_68.dzn
TERM = { '.', 'in_1', 'in_2', 'in_3', 'in_4', 's(1)', 's(0)', 'in_0'};
null = '.';
s = 3;
n = 10;
ndeps = 0;
max_registers_sz = 3;
NR = 0;
registers = [| |];
dependencies = [| |];
GET_ENUM = { GET1, GET2, GET3};
SET_ENUM = { SET1, SET2, SET3};
TEE_ENUM = { TEE1, TEE2, TEE3};
N = 3;
OP = { 'i32.add_0', 'i32.sub_0', 'i32.store_1' };
in_ops = [2, 2, 2 ];
out_ops = [1, 1, 0 ];
in1 = ['in_3', 'in_0', 's(0)' ];
in2 = ['in_4', 'in_1', 'in_2' ];
in3 = ['.', '.', '.' ];
out1 = ['s(1)', 's(0)', '.' ];
out2 = ['.', '.', '.' ];
out3 = ['.', '.', '.' ];
comm = [true, false, false ];
gas = [1, 1, 1 ];
sz = [1, 1, 1 ];
stor = [false, false, true ];
lb = [ 1, 1, 1 ];
ub = [ 3, 3, 3 ];
startstack = [ 'in_0', 'in_1', 'in_2', 'in_3', 'in_4', null, null, null, null, null ];
endstack = [ 's(1)', null, null, null, null, null, null, null, null, null ];
